120
150
73
77
42
68
51
27
41
67
83
87
87
22
82
67
24
44
82
70
79
41
56
64
77
73
40
93
79
49
57
21
31
30
45
32
73
45
34
70
24
44
76
69
28
67
53
22
51
58
68
26
26
57
44
61
58
58
28
64
92
70
79
27
62
87
67
53
49
41
31
86
64
31
79
37
57
49
44
100
50
34
84
64
71
79
50
100
82
39
49
64
79
40
51
50
49
93
57
37
45
41
64
85
34
30
44
70
62
88
100
49
44
59
82
68
64
86
50
100
47
36
